Instance: E253-27k.dat

252
27
507

800	40	20

 0  0.00  0.00  0.00  0.00  255.00
 1  3.00  1.00  140.00  168.00  175.00
 2  3.00  3.00  102.00  94.00  108.00
 3  1.00  3.00  82.00  84.00  96.00
 4  -1.00  3.00  96.00  32.00  42.00
 5  -3.00  3.00  108.00  160.00  172.00
 6  -3.00  1.00  84.00  158.00  176.00
 7  -3.00  -1.00  68.00  61.00  76.00
 8  -3.00  -3.00  99.00  163.00  183.00
 9  -1.00  -3.00  96.00  10.00  21.00
10  1.00  -3.00  42.00  183.00  196.00
11  3.00  -3.00  132.00  42.00  55.00
12  3.00  -1.00  96.00  187.00  194.00
13  5.00  1.00  78.00  88.00  93.00
14  5.00  3.00  144.00  30.00  50.00
15  5.00  5.00  98.00  154.00  168.00
16  3.00  5.00  122.00  127.00  136.00
17  1.00  5.00  54.00  183.00  201.00
18  -1.00  5.00  125.00  147.00  163.00
19  -3.00  5.00  186.00  97.00  113.00
20  -5.00  5.00  63.00  203.00  218.00
21  -5.00  3.00  63.00  80.00  95.00
22  -5.00  1.00  165.00  98.00  104.00
23  -5.00  -1.00  26.00  81.00  101.00
24  -5.00  -3.00  72.00  203.00  215.00
25  -5.00  -5.00  169.00  122.00  137.00
26  -3.00  -5.00  87.00  163.00  172.00
27  -1.00  -5.00  154.00  95.00  106.00
28  1.00  -5.00  125.00  191.00  200.00
29  3.00  -5.00  162.00  40.00  59.00
30  5.00  -5.00  80.00  113.00  133.00
31  5.00  -3.00  136.00  103.00  111.00
32  5.00  -1.00  92.00  80.00  93.00
33  7.00  1.00  80.00  169.00  178.00
34  7.00  3.00  72.00  90.00  103.00
35  7.00  5.00  155.00  96.00  110.00
36  7.00  7.00  63.00  92.00  109.00
37  5.00  7.00  130.00  64.00  83.00
38  3.00  7.00  110.00  19.00  36.00
39  1.00  7.00  100.00  63.00  68.00
40  -1.00  7.00  105.00  216.00  227.00
41  -3.00  7.00  57.00  173.00  184.00
42  -5.00  7.00  188.00  105.00  115.00
43  -7.00  7.00  122.00  50.00  56.00
44  -7.00  5.00  69.00  138.00  148.00
45  -7.00  3.00  111.00  97.00  112.00
46  -7.00  1.00  152.00  149.00  162.00
47  -7.00  -1.00  95.00  128.00  134.00
48  -7.00  -3.00  127.00  124.00  136.00
49  -7.00  -5.00  141.00  173.00  192.00
50  -7.00  -7.00  100.00  143.00  161.00
51  -5.00  -7.00  106.00  188.00  194.00
52  -3.00  -7.00  120.00  54.00  67.00
53  -1.00  -7.00  72.00  165.00  180.00
54  1.00  -7.00  45.00  192.00  209.00
55  3.00  -7.00  126.00  176.00  185.00
56  5.00  -7.00  51.00  182.00  200.00
57  7.00  -7.00  140.00  16.00  35.00
58  7.00  -5.00  154.00  120.00  134.00
59  7.00  -3.00  136.00  75.00  85.00
60  7.00  -1.00  160.00  130.00  138.00
61  9.00  1.00  144.00  24.00  33.00
62  9.00  3.00  96.00  185.00  198.00
63  9.00  5.00  84.00  42.00  50.00
64  9.00  7.00  133.00  131.00  148.00
65  9.00  9.00  106.00  203.00  215.00
66  7.00  9.00  156.00  209.00  218.00
67  5.00  9.00  150.00  93.00  100.00
68  3.00  9.00  128.00  39.00  47.00
69  1.00  9.00  63.00  205.00  212.00
70  -1.00  9.00  113.00  189.00  198.00
71  -3.00  9.00  109.00  169.00  183.00
72  -5.00  9.00  129.00  14.00  26.00
73  -7.00  9.00  104.00  55.00  72.00
74  -9.00  9.00  51.00  181.00  198.00
75  -9.00  7.00  131.00  188.00  208.00
76  -9.00  5.00  102.00  61.00  81.00
77  -9.00  3.00  112.00  200.00  216.00
78  -9.00  1.00  60.00  37.00  57.00
79  -9.00  -1.00  90.00  9.00  29.00
80  -9.00  -3.00  55.00  115.00  135.00
81  -9.00  -5.00  138.00  87.00  107.00
82  -9.00  -7.00  42.00  222.00  227.00
83  -9.00  -9.00  138.00  211.00  227.00
84  -7.00  -9.00  84.00  214.00  227.00
85  -5.00  -9.00  128.00  196.00  207.00
86  -3.00  -9.00  77.00  151.00  166.00
87  -1.00  -9.00  128.00  136.00  149.00
88  1.00  -9.00  144.00  114.00  134.00
89  3.00  -9.00  96.00  132.00  151.00
90  5.00  -9.00  84.00  130.00  137.00
91  7.00  -9.00  150.00  53.00  67.00
92  9.00  -9.00  118.00  101.00  110.00
93  9.00  -7.00  64.00  202.00  214.00
94  9.00  -5.00  124.00  127.00  146.00
95  9.00  -3.00  104.00  168.00  177.00
96  9.00  -1.00  183.00  213.00  222.00
97  11.00  1.00  112.00  15.00  28.00
98  11.00  3.00  127.00  187.00  207.00
99  11.00  5.00  96.00  168.00  187.00
100  11.00  7.00  164.00  164.00  175.00
101  11.00  9.00  101.00  172.00  178.00
102  11.00  11.00  108.00  24.00  33.00
103  9.00  11.00  156.00  88.00  107.00
104  7.00  11.00  94.00  28.00  33.00
105  5.00  11.00  102.00  208.00  219.00
106  3.00  11.00  154.00  43.00  56.00
107  1.00  11.00  115.00  171.00  177.00
108  -1.00  11.00  192.00  160.00  167.00
109  -3.00  11.00  160.00  188.00  193.00
110  -5.00  11.00  60.00  195.00  211.00
111  -7.00  11.00  213.00  109.00  124.00
112  -9.00  11.00  69.00  22.00  29.00
113  -11.00  11.00  114.00  9.00  26.00
114  -11.00  9.00  136.00  25.00  38.00
115  -11.00  7.00  40.00  31.00  47.00
116  -11.00  5.00  117.00  94.00  104.00
117  -11.00  3.00  72.00  115.00  132.00
118  -11.00  1.00  95.00  82.00  100.00
119  -11.00  -1.00  172.00  218.00  227.00
120  -11.00  -3.00  112.00  165.00  185.00
121  -11.00  -5.00  152.00  96.00  110.00
122  -11.00  -7.00  117.00  116.00  131.00
123  -11.00  -9.00  147.00  48.00  56.00
124  -11.00  -11.00  137.00  193.00  212.00
125  -9.00  -11.00  124.00  89.00  102.00
126  -7.00  -11.00  92.00  154.00  170.00
127  -5.00  -11.00  36.00  54.00  60.00
128  -3.00  -11.00  118.00  117.00  131.00
129  -1.00  -11.00  140.00  22.00  33.00
130  1.00  -11.00  91.00  65.00  85.00
131  3.00  -11.00  168.00  122.00  128.00
132  5.00  -11.00  80.00  23.00  30.00
133  7.00  -11.00  70.00  48.00  65.00
134  9.00  -11.00  90.00  194.00  214.00
135  11.00  -11.00  35.00  186.00  201.00
136  11.00  -9.00  168.00  121.00  130.00
137  11.00  -7.00  165.00  161.00  169.00
138  11.00  -5.00  138.00  173.00  187.00
139  11.00  -3.00  125.00  81.00  97.00
140  11.00  -1.00  180.00  208.00  218.00
141  13.00  1.00  129.00  70.00  87.00
142  13.00  3.00  186.00  101.00  113.00
143  13.00  5.00  50.00  97.00  117.00
144  13.00  7.00  124.00  164.00  181.00
145  13.00  9.00  42.00  65.00  78.00
146  13.00  11.00  140.00  137.00  156.00
147  13.00  13.00  60.00  157.00  165.00
148  11.00  13.00  142.00  192.00  198.00
149  9.00  13.00  132.00  165.00  170.00
150  7.00  13.00  80.00  175.00  188.00
151  5.00  13.00  110.00  66.00  77.00
152  3.00  13.00  175.00  150.00  156.00
153  1.00  13.00  96.00  203.00  211.00
154  -1.00  13.00  48.00  111.00  119.00
155  -3.00  13.00  160.00  97.00  109.00
156  -5.00  13.00  120.00  161.00  176.00
157  -7.00  13.00  80.00  67.00  80.00
158  -9.00  13.00  113.00  80.00  95.00
159  -11.00  13.00  88.00  141.00  152.00
160  -13.00  13.00  138.00  147.00  161.00
161  -13.00  11.00  91.00  63.00  75.00
162  -13.00  9.00  141.00  110.00  128.00
163  -13.00  7.00  149.00  141.00  147.00
164  -13.00  5.00  154.00  19.00  34.00
165  -13.00  3.00  42.00  206.00  218.00
166  -13.00  1.00  125.00  200.00  215.00
167  -13.00  -1.00  94.00  31.00  46.00
168  -13.00  -3.00  150.00  30.00  44.00
169  -13.00  -5.00  148.00  129.00  145.00
170  -13.00  -7.00  177.00  93.00  98.00
171  -13.00  -9.00  147.00  144.00  153.00
172  -13.00  -11.00  183.00  85.00  94.00
173  -13.00  -13.00  150.00  197.00  206.00
174  -11.00  -13.00  91.00  128.00  135.00
175  -9.00  -13.00  124.00  154.00  173.00
176  -7.00  -13.00  84.00  154.00  173.00
177  -5.00  -13.00  167.00  16.00  31.00
178  -3.00  -13.00  166.00  136.00  154.00
179  -1.00  -13.00  46.00  86.00  104.00
180  1.00  -13.00  124.00  2.00  21.00
181  3.00  -13.00  112.00  159.00  173.00
182  5.00  -13.00  44.00  27.00  37.00
183  7.00  -13.00  146.00  15.00  34.00
184  9.00  -13.00  158.00  95.00  113.00
185  11.00  -13.00  168.00  175.00  182.00
186  13.00  -13.00  130.00  148.00  155.00
187  13.00  -11.00  84.00  119.00  124.00
188  13.00  -9.00  144.00  195.00  204.00
189  13.00  -7.00  88.00  163.00  169.00
190  13.00  -5.00  140.00  196.00  216.00
191  13.00  -3.00  106.00  114.00  125.00
192  13.00  -1.00  93.00  14.00  24.00
193  15.00  1.00  90.00  44.00  50.00
194  15.00  3.00  88.00  26.00  40.00
195  15.00  5.00  95.00  92.00  106.00
196  15.00  7.00  56.00  27.00  35.00
197  15.00  9.00  107.00  186.00  202.00
198  15.00  11.00  136.00  169.00  189.00
199  15.00  13.00  45.00  101.00  108.00
200  15.00  15.00  51.00  159.00  176.00
201  13.00  15.00  152.00  201.00  211.00
202  11.00  15.00  164.00  172.00  181.00
203  9.00  15.00  36.00  153.00  167.00
204  7.00  15.00  104.00  109.00  128.00
205  5.00  15.00  142.00  69.00  75.00
206  3.00  15.00  160.00  73.00  79.00
207  1.00  15.00  90.00  83.00  97.00
208  -1.00  15.00  128.00  41.00  56.00
209  -3.00  15.00  161.00  102.00  119.00
210  -5.00  15.00  150.00  64.00  74.00
211  -7.00  15.00  170.00  51.00  62.00
212  -9.00  15.00  112.00  166.00  176.00
213  -11.00  15.00  84.00  23.00  43.00
214  -13.00  15.00  122.00  115.00  135.00
215  -15.00  15.00  80.00  64.00  70.00
216  -15.00  13.00  96.00  164.00  170.00
217  -15.00  11.00  87.00  210.00  218.00
218  -15.00  9.00  78.00  117.00  137.00
219  -15.00  7.00  86.00  38.00  54.00
220  -15.00  5.00  60.00  112.00  131.00
221  -15.00  3.00  133.00  4.00  24.00
222  -15.00  1.00  63.00  31.00  49.00
223  -15.00  -1.00  75.00  106.00  119.00
224  -15.00  -3.00  115.00  101.00  109.00
225  -15.00  -5.00  179.00  107.00  114.00
226  -15.00  -7.00  114.00  191.00  198.00
227  -15.00  -9.00  129.00  114.00  126.00
228  -15.00  -11.00  104.00  130.00  143.00
229  -15.00  -13.00  142.00  42.00  51.00
230  -15.00  -15.00  84.00  113.00  132.00
231  -13.00  -15.00  132.00  57.00  72.00
232  -11.00  -15.00  60.00  136.00  149.00
233  -9.00  -15.00  130.00  51.00  71.00
234  -7.00  -15.00  166.00  42.00  49.00
235  -5.00  -15.00  45.00  210.00  222.00
236  -3.00  -15.00  106.00  67.00  77.00
237  -1.00  -15.00  54.00  98.00  105.00
238  1.00  -15.00  126.00  197.00  212.00
239  3.00  -15.00  96.00  142.00  158.00
240  5.00  -15.00  170.00  129.00  142.00
241  7.00  -15.00  84.00  196.00  213.00
242  9.00  -15.00  173.00  200.00  215.00
243  11.00  -15.00  77.00  64.00  82.00
244  13.00  -15.00  150.00  62.00  70.00
245  15.00  -15.00  39.00  143.00  152.00
246  15.00  -13.00  100.00  182.00  194.00
247  15.00  -11.00  96.00  195.00  208.00
248  15.00  -9.00  124.00  63.00  80.00
249  15.00  -7.00  45.00  143.00  151.00
250  15.00  -5.00  139.00  210.00  223.00
251  15.00  -3.00  168.00  96.00  111.00
252  15.00  -1.00  120.00  37.00  54.00


 1 3 51311 514 3
 2 3 51311 514 3
 3 2 51311 5
 4 1 513
 5 2 51311 5
 6 3 51311 514 3
 7 2 51311 5
 8 2 51311 5
 9 2 51311 5
10 1 513
11 3 51311 514 3
12 1 513
13 2 51311 5
14 3 51311 514 3
15 1 513
16 2 51311 5
17 1 513
18 3 51311 514 3
19 2 51311 5
20 1 513
21 1 513
22 3 51311 514 3
23 1 513
24 1 513
25 2 51311 5
26 2 51311 5
27 3 51311 514 3
28 2 51311 5
29 3 51311 514 3
30 3 51311 514 3
31 2 51311 5
32 2 51311 5
33 3 51311 514 3
34 1 513
35 2 51311 5
36 3 51311 514 3
37 2 51311 5
38 2 51311 5
39 1 513
40 2 51311 5
41 1 513
42 2 51311 5
43 3 51311 514 3
44 3 51311 514 3
45 2 51311 5
46 2 51311 5
47 3 51311 514 3
48 2 51311 5
49 3 51311 514 3
50 1 513
51 3 51311 514 3
52 1 513
53 1 513
54 1 513
55 2 51311 5
56 1 513
57 3 51311 514 3
58 2 51311 5
59 3 51311 514 3
60 2 51311 5
61 2 51311 5
62 1 513
63 1 513
64 3 51311 514 3
65 3 51311 514 3
66 2 51311 5
67 2 51311 5
68 3 51311 514 3
69 1 513
70 3 51311 514 3
71 2 51311 5
72 2 51311 5
73 1 513
74 1 513
75 2 51311 5
76 3 51311 514 3
77 3 51311 514 3
78 1 513
79 3 51311 514 3
80 1 513
81 2 51311 5
82 1 513
83 2 51311 5
84 1 513
85 2 51311 5
86 1 513
87 2 51311 5
88 3 51311 514 3
89 1 513
90 1 513
91 2 51311 5
92 3 51311 514 3
93 1 513
94 2 51311 5
95 1 513
96 3 51311 514 3
97 2 51311 5
98 2 51311 5
99 1 513
100 3 51311 514 3
101 3 51311 514 3
102 3 51311 514 3
103 2 51311 5
104 3 51311 514 3
105 2 51311 5
106 2 51311 5
107 2 51311 5
108 3 51311 514 3
109 3 51311 514 3
110 1 513
111 3 51311 514 3
112 1 513
113 2 51311 5
114 3 51311 514 3
115 1 513
116 2 51311 5
117 1 513
118 3 51311 514 3
119 3 51311 514 3
120 1 513
121 3 51311 514 3
122 3 51311 514 3
123 2 51311 5
124 2 51311 5
125 1 513
126 2 51311 5
127 1 513
128 2 51311 5
129 2 51311 5
130 1 513
131 2 51311 5
132 1 513
133 1 513
134 3 51311 514 3
135 1 513
136 2 51311 5
137 3 51311 514 3
138 3 51311 514 3
139 3 51311 514 3
140 3 51311 514 3
141 3 51311 514 3
142 2 51311 5
143 1 513
144 3 51311 514 3
145 1 513
146 2 51311 5
147 1 513
148 2 51311 5
149 2 51311 5
150 2 51311 5
151 3 51311 514 3
152 3 51311 514 3
153 1 513
154 1 513
155 2 51311 5
156 2 51311 5
157 2 51311 5
158 3 51311 514 3
159 2 51311 5
160 3 51311 514 3
161 2 51311 5
162 3 51311 514 3
163 3 51311 514 3
164 3 51311 514 3
165 1 513
166 2 51311 5
167 3 51311 514 3
168 2 51311 5
169 3 51311 514 3
170 3 51311 514 3
171 2 51311 5
172 3 51311 514 3
173 2 51311 5
174 1 513
175 2 51311 5
176 1 513
177 3 51311 514 3
178 2 51311 5
179 1 513
180 2 51311 5
181 3 51311 514 3
182 1 513
183 3 51311 514 3
184 2 51311 5
185 2 51311 5
186 3 51311 514 3
187 1 513
188 2 51311 5
189 2 51311 5
190 3 51311 514 3
191 3 51311 514 3
192 2 51311 5
193 1 513
194 1 513
195 2 51311 5
196 1 513
197 3 51311 514 3
198 3 51311 514 3
199 1 513
200 1 513
201 3 51311 514 3
202 2 51311 5
203 1 513
204 3 51311 514 3
205 2 51311 5
206 2 51311 5
207 1 513
208 2 51311 5
209 3 51311 514 3
210 3 51311 514 3
211 2 51311 5
212 1 513
213 1 513
214 3 51311 514 3
215 1 513
216 1 513
217 2 51311 5
218 2 51311 5
219 2 51311 5
220 1 513
221 2 51311 5
222 1 513
223 1 513
224 2 51311 5
225 3 51311 514 3
226 3 51311 514 3
227 3 51311 514 3
228 2 51311 5
229 3 51311 514 3
230 1 513
231 3 51311 514 3
232 1 513
233 3 51311 514 3
234 2 51311 5
235 1 513
236 3 51311 514 3
237 1 513
238 3 51311 514 3
239 2 51311 5
240 2 51311 5
241 1 513
242 2 51311 5
243 1 513
244 2 51311 5
245 1 513
246 2 51311 5
247 1 513
248 2 51311 5
249 1 513
250 2 51311 5
251 2 51311 5
252 2 51311 5
